1618300
90, 109, 24, 23, 15, 22, 58, 54, 102, 100, 53, 17, 80, 48, 21, 74, 92, 4, 67, 79, 56, 103, 30, 6, 61, 85, 43, 44, 20, 63, 3, 83, 25, 16, 29, 52, 34, 45, 82, 1, 5, 35, 101, 98, 107, 94, 46, 81, 2, 59, 84, 51, 95, 32, 104, 97, 47, 39, 14, 70, 69, 27, 86, 75, 57, 31, 72, 38, 26, 37, 41, 71, 99, 76, 50, 18, 7, 88, 65, 12, 36, 28, 8, 60, 42, 106, 33, 78, 108, 55, 40, 68, 73, 19, 62, 87, 96, 93, 13, 105, 89, 11, 49, 91, 64, 10, 66, 77, 9
